D = 3;
n = [2 1 1];

N = 5;
d = [1 1 1 2 3];
m = [
    [1.0 0.9287083198036777 0.5046177393193059 0.018506319783435976 0.9976792113064372]
    [0.9287083198036777 1.0 0.6576629786278125 0.5902825441052959 0.23598773951395724]
    [0.5046177393193059 0.6576629786278125 1.0 0.7283448108107727 0.918667495556857]
    [0.018506319783435976 0.5902825441052959 0.7283448108107727 1.0 0.8774455636244705]
    [0.9976792113064372 0.23598773951395724 0.918667495556857 0.8774455636244705 1.0]
];